objective value:                                   -4
t_n_4                                               1 	(obj:-1)
t_n_782                                             1 	(obj:-1)
t_n_1150                                            1 	(obj:-1)
t_n_1151                                            1 	(obj:-1)
